3 3 2
25 1 2 0 22 1 39 2 8 0 16 1 23 0 36 1 33 0 34 2 49 1 12 0 44 2 18 1 38 0 48 2 45 0 38 2 10 0 1 2 5 0 4 1 29 0 16 2 30 1 20 
25 0 11 1 18 2 49 0 39 1 2 0 2 2 9 0 3 2 25 1 21 0 35 2 19 0 38 1 41 2 45 1 14 2 16 0 49 1 15 2 32 1 29 0 17 1 46 0 28 2 31 
25 1 12 0 44 1 42 2 17 0 1 1 11 2 24 0 28 2 20 0 26 1 23 2 4 1 1 2 37 1 41 0 18 2 32 0 22 1 9 2 40 0 39 1 29 0 8 1 44 2 41 

-------------
